n = 50;
C = 222;
w = [317,4,96,458,78,245,88,315,62,357,314,363,87,55,138,270,453,48,86,55,31,63,247,253,407,373,319,45,134,175,165,318,295,108,128,145,283,131,204,182,459,363,279,461,154,445,301,53,318,384];
p = [331,-40,60,472,89,214,57,325,62,393,352,351,44,53,113,235,492,73,94,87,-7,83,242,251,386,363,326,34,93,125,127,308,245,138,92,143,272,150,162,211,476,365,283,479,171,420,284,77,307,377];
